************************************************************************
file with basedata            : cm231_.bas
initial value random generator: 492976367
************************************************************************
projects                      :  1
jobs (incl. supersource/sink ):  18
horizon                       :  122
RESOURCES
  - renewable                 :  2   R
  - nonrenewable              :  2   N
  - doubly constrained        :  0   D
************************************************************************
PROJECT INFORMATION:
pronr.  #jobs rel.date duedate tardcost  MPM-Time
    1     16      0       24        9       24
************************************************************************
PRECEDENCE RELATIONS:
jobnr.    #modes  #successors   successors
   1        1          3           2   3   4
   2        2          3           8   9  10
   3        2          1           7
   4        2          2           5  12
   5        2          3           6   7  15
   6        2          3           9  10  11
   7        2          3           8   9  10
   8        2          1          14
   9        2          1          14
  10        2          3          13  14  17
  11        2          2          13  17
  12        2          3          13  15  17
  13        2          1          16
  14        2          1          16
  15        2          1          18
  16        2          1          18
  17        2          1          18
  18        1          0        
************************************************************************
REQUESTS/DURATIONS:
jobnr. mode duration  R 1  R 2  N 1  N 2
------------------------------------------------------------------------
  1      1     0       0    0    0    0
  2      1     3       7    8    0    6
         2     9       3    7    3    0
  3      1     1       3    8    0    3
         2     9       1    7    6    0
  4      1     5       7   10    0    9
         2     7       5    8    4    0
  5      1     1       5    6    0    6
         2     9       5    5    0    2
  6      1     5       7    5    1    0
         2    10       7    2    0    3
  7      1     7       6    7    0    4
         2     9       3    6    6    0
  8      1     5       7    8    7    0
         2     8       5    4    5    0
  9      1     7       7    6    0    2
         2     9       3    5    3    0
 10      1     4       6    3    0    8
         2     6       6    2    7    0
 11      1     3       7    7    0    3
         2     4       3    1    6    0
 12      1     4      10    3    0    8
         2     9       7    3    0    5
 13      1     4       5    6    3    0
         2     5       4    2    0    1
 14      1     1       4    5    5    0
         2     6       3    5    3    0
 15      1     2       7    3    0    3
         2     7       6    2    4    0
 16      1     3       9    5    7    0
         2    10       6    5    7    0
 17      1     4       7    8    6    0
         2     5       4    7    0    5
 18      1     0       0    0    0    0
************************************************************************
RESOURCEAVAILABILITIES:
  R 1  R 2  N 1  N 2
   22   23   68   61
************************************************************************
